n = 80;
capacity = 100;
size = [80, 79, 77, 77, 76, 75, 74, 74, 74, 74, 74, 73, 72, 71, 71, 68, 68, 67, 66, 66, 65, 65, 64, 63, 63, 63, 62, 60, 60, 60, 59, 59, 58, 58, 57, 57, 56, 54, 54, 54, 53, 53, 53, 51, 50, 50, 49, 49, 49, 49, 48, 48, 47, 47, 43, 43, 41, 41, 40, 39, 37, 37, 37, 37, 35, 33, 33, 32, 31, 31, 30, 29, 28, 27, 26, 26, 24, 23, 21, 20];
